NAME: ACTUAL_TOURS/amz0175
TYPE: TOUR
COMMENT: RouteID_11f5aa13-f99a-4ad4-b221-c9007fe3f8f3
DIMENSION: 148
TOUR_SECTION
125
112
92
29
148
145
50
142
124
64
144
118
57
61
33
79
22
38
16
133
51
36
5
91
27
99
12
17
20
26
122
86
78
3
7
10
138
128
70
62
98
2
109
58
132
13
37
23
43
42
139
48
131
80
63
103
46
140
94
85
14
1
137
19
115
88
4
111
136
66
89
34
6
54
75
87
52
97
59
110
45
123
77
55
32
60
71
135
9
25
104
15
67
119
129
106
143
93
146
83
69
40
82
24
56
41
120
95
147
84
113
31
121
68
47
35
100
76
30
90
126
18
73
130
107
114
102
74
96
72
28
116
65
21
49
105
101
44
39
53
108
8
134
11
117
141
127
81
-1
EOF
